(set-option :produce-models true)
(set-logic QF_UF)
(declare-fun p59() Bool)
(declare-fun p12() Bool)
(declare-fun p32() Bool)
(declare-fun p79() Bool)
(declare-fun p43() Bool)
(declare-fun p48() Bool)
(declare-fun p44() Bool)
(declare-fun p56() Bool)
(declare-fun p92() Bool)
(declare-fun p85() Bool)
(declare-fun p31() Bool)
(declare-fun p42() Bool)
(declare-fun p77() Bool)
(declare-fun p15() Bool)
(declare-fun p83() Bool)
(declare-fun p39() Bool)
(declare-fun p64() Bool)
(declare-fun p21() Bool)
(declare-fun p99() Bool)
(declare-fun p97() Bool)
(declare-fun p23() Bool)
(declare-fun p54() Bool)
(declare-fun p52() Bool)
(declare-fun p68() Bool)
(declare-fun p62() Bool)
(declare-fun p91() Bool)
(declare-fun p61() Bool)
(declare-fun p4() Bool)
(declare-fun p46() Bool)
(declare-fun p1() Bool)
(declare-fun p70() Bool)
(declare-fun p63() Bool)
(declare-fun p53() Bool)
(declare-fun p69() Bool)
(declare-fun p49() Bool)
(declare-fun p50() Bool)
(declare-fun p66() Bool)
(declare-fun p30() Bool)
(declare-fun p98() Bool)
(declare-fun p93() Bool)
(declare-fun p7() Bool)
(declare-fun p40() Bool)
(declare-fun p73() Bool)
(declare-fun p51() Bool)
(declare-fun p71() Bool)
(declare-fun p8() Bool)
(declare-fun p78() Bool)
(declare-fun p45() Bool)
(declare-fun p86() Bool)
(declare-fun p41() Bool)
(declare-fun p65() Bool)
(declare-fun p20() Bool)
(declare-fun p58() Bool)
(declare-fun p47() Bool)
(declare-fun p87() Bool)
(declare-fun p16() Bool)
(declare-fun p19() Bool)
(declare-fun p3() Bool)
(declare-fun p55() Bool)
(declare-fun p84() Bool)
(declare-fun p18() Bool)
(declare-fun p24() Bool)
(declare-fun p2() Bool)
(declare-fun p74() Bool)
(declare-fun p22() Bool)
(declare-fun p0() Bool)
(declare-fun p82() Bool)
(declare-fun p72() Bool)
(declare-fun p60() Bool)
(declare-fun p80() Bool)
(declare-fun p88() Bool)
(declare-fun p5() Bool)
(declare-fun p10() Bool)
(declare-fun p26() Bool)
(declare-fun p36() Bool)
(declare-fun p29() Bool)
(declare-fun p81() Bool)
(declare-fun p57() Bool)
(declare-fun p17() Bool)
(declare-fun p13() Bool)
(declare-fun p14() Bool)
(declare-fun p11() Bool)
(declare-fun p34() Bool)
(declare-fun p95() Bool)
(declare-fun p25() Bool)
(declare-fun p38() Bool)
(declare-fun p89() Bool)
(declare-fun p35() Bool)
(declare-fun p94() Bool)
(declare-fun p67() Bool)
(declare-fun p90() Bool)
(declare-fun p27() Bool)
(declare-fun p37() Bool)
(declare-fun p6() Bool)
(declare-fun p28() Bool)
(declare-fun p76() Bool)
(declare-fun p75() Bool)
(declare-fun p33() Bool)
(declare-fun p96() Bool)
(declare-fun p9() Bool)
(assert
(and (or p59 (not p12) (not p32)) (or (not p79) (not p43) p48) (or (not p44) (not p56) p44) (or (not p92) p85 (not p31)) (or p42 (not p77) (not p15)) (or p83 (not p43) p39) (or p64 (not p21) (not p99)) (or (not p97) p23 (not p54)) (or p52 (not p42) p68) (or (not p62) p91 p61) (or p4 p46 (not p64)) (or p48 (not p61) (not p44)) (or p59 (not p32) p1) (or p70 (not p63) p54) (or p53 (not p61) (not p69)) (or (not p49) (not p50) p43) (or p59 (not p66) (not p64)) (or p56 p30 (not p98)) (or (not p93) (not p7) (not p69)) (or p40 (not p73) p51) (or (not p61) (not p71) p8) (or (not p78) p45 p31) (or (not p12) p86 p41) (or p65 p41 (not p59)) (or (not p20) p58 (not p47)) (or p87 p16 (not p19)) (or (not p46) p3 (not p92)) (or p55 p71 (not p84)) (or (not p54) p50 (not p18)) (or p24 (not p2) p63) (or p46 (not p74) (not p92)) (or (not p19) p66 (not p2)) (or (not p22) p55 (not p0)) (or (not p41) p51 p82) (or p68 p45 (not p50)) (or (not p72) (not p18) (not p60)) (or (not p31) p48 (not p80)) (or (not p88) (not p5) p10) (or p85 (not p23) (not p26)) (or (not p65) (not p48) p36) (or p18 (not p99) (not p99)) (or (not p74) p44 (not p29)) (or (not p48) (not p78) (not p81)) (or p7 (not p50) p81) (or (not p57) p54 (not p78)) (or (not p20) (not p63) (not p47)) (or p62 (not p29) p21) (or p59 p82 (not p54)) (or p18 (not p3) p85) (or (not p17) p88 (not p60)) (or (not p82) p13 (not p14)) (or p0 p17 p4) (or p68 (not p11) p19) (or (not p47) p84 p34) (or (not p26) p4 p59) (or p15 (not p11) (not p63)) (or (not p61) p85 (not p79)) (or (not p31) p93 p17) (or p18 p95 (not p87)) (or p24 p65 (not p66)) (or (not p54) (not p58) p16) (or p62 p56 p79) (or p83 (not p25) (not p99)) (or (not p95) (not p60) (not p93)) (or p69 (not p38) p73) (or p7 p51 p34) (or (not p13) (not p43) (not p45)) (or (not p91) (not p89) p44) (or (not p3) p77 p81) (or (not p47) p35 p4) (or p79 p43 (not p42)) (or (not p70) (not p17) (not p46)) (or (not p26) (not p79) (not p78)) (or (not p32) p40 (not p80)) (or p32 (not p94) p66) (or (not p41) (not p92) (not p7)) (or p53 p2 p65) (or p82 (not p67) (not p83)) (or (not p62) (not p58) p77) (or (not p55) (not p61) (not p88)) (or p52 p58 p65) (or (not p31) p53 p90) (or p26 p23 (not p83)) (or p5 (not p45) (not p13)) (or p56 p72 p16) (or (not p15) p94 (not p83)) (or (not p58) p25 p0) (or (not p17) (not p10) (not p2)) (or p16 (not p85) p55) (or p56 p27 p46) (or (not p16) p22 (not p21)) (or (not p98) (not p10) (not p51)) (or p42 p58 p63) (or p16 (not p37) p55) (or p65 (not p78) p59) (or (not p32) p6 p12) (or (not p40) p28 p91) (or p85 p88 (not p26)) (or p51 p76 (not p6)) (or p78 p65 (not p6)) (or (not p59) p28 (not p41)) (or p80 p32 p39) (or (not p61) p81 p23) (or (not p12) (not p54) (not p36)) (or p74 (not p1) p8) (or p98 (not p27) p35) (or p67 (not p19) p79) (or p54 (not p75) p59) (or (not p40) p44 p47) (or (not p49) (not p40) p55) (or (not p73) p95 p16) (or (not p34) (not p14) (not p80)) (or p8 (not p70) (not p95)) (or (not p44) p68 (not p29)) (or p33 (not p33) p30) (or p57 p62 (not p95)) (or p26 (not p10) (not p8)) (or (not p87) (not p76) (not p50)) (or (not p89) p2 (not p31)) (or (not p67) p99 p54) (or p47 p93 (not p14)) (or p70 p83 p36) (or p16 p37 p1) (or p53 p59 p4) (or p23 (not p13) (not p32)) (or (not p19) (not p10) p89) (or (not p81) p86 p40) (or p53 p98 p61) (or (not p11) (not p81) (not p93)) (or p43 p13 (not p3)) (or p18 p98 p8) (or p57 (not p96) p19) (or p50 (not p51) (not p86)) (or (not p34) p51 (not p2)) (or (not p71) (not p60) (not p28)) (or (not p88) (not p86) (not p49)) (or (not p80) (not p66) p81) (or p92 p70 p57) (or p86 (not p70) p61) (or p45 (not p31) (not p48)) (or (not p46) (not p88) (not p92)) (or (not p57) p26 (not p58)) (or (not p24) (not p81) (not p79)) (or (not p6) (not p82) (not p84)) (or (not p73) (not p12) (not p72)) (or p67 (not p18) p69) (or p14 p99 (not p17)) (or p86 p18 p42) (or p62 (not p36) p25) (or p59 p23 (not p59)) (or (not p26) p70 p90) (or p76 (not p98) p96) (or p64 p53 p42) (or (not p9) p28 p64) (or p65 p18 p27) (or (not p4) (not p98) p60) (or (not p33) (not p12) p89) (or p70 (not p53) p28) (or p17 (not p93) (not p88)) (or p51 p74 p63) (or p62 (not p65) p16) (or (not p17) (not p90) p28) (or (not p97) p31 p31) (or p39 p38 (not p78)) (or p89 p20 (not p11)) (or (not p98) (not p56) (not p45)) (or (not p89) (not p96) p83) (or p73 (not p6) p95) (or (not p98) p29 (not p10)) (or (not p84) p69 p80) (or (not p77) (not p57) (not p99)) (or p84 (not p77) p78) (or p70 p69 p89) (or (not p29) p5 (not p32)) (or p78 (not p64) (not p46)) (or (not p10) (not p77) (not p50)) (or p33 p62 p32) (or (not p80) (not p38) p49) (or p30 p25 (not p20)) (or p1 p67 (not p72)) (or (not p7) p99 (not p20)) (or p10 p89 p87) (or p13 (not p58) (not p75)) (or p72 p10 (not p40)) (or p81 (not p37) (not p7)) (or (not p41) p58 (not p33)) (or (not p37) p67 p80) (or p57 (not p29) (not p20)) (or p35 p79 p83) (or p11 (not p23) p47) (or (not p55) (not p78) (not p33)) (or p36 p18 (not p89)) (or p70 (not p9) p51) (or (not p32) (not p24) p51) (or (not p81) (not p81) p71) (or p10 (not p81) p3) (or p16 p33 p36) (or p4 p22 p60) (or p40 (not p66) p82) (or p39 (not p34) p73) (or p78 p45 p67) (or p23 p78 p8) (or p0 (not p46) (not p93)) (or p29 p48 (not p82)) (or (not p45) p72 p96) (or p98 (not p97) (not p25)) (or (not p35) p94 p9) (or (not p63) p35 (not p88)) (or (not p51) (not p26) p33) (or (not p3) p80 p50) (or p6 p71 (not p57)) (or p55 (not p56) (not p63)) (or p78 (not p35) (not p50)) (or p93 (not p87) (not p41)) (or p94 p85 p83) (or p96 (not p48) p18) (or (not p96) (not p62) p58) (or p87 p78 p9) (or (not p90) p6 p35) (or (not p67) p15 (not p47)) (or (not p89) p1 (not p35)) (or p7 p32 p77) (or p39 (not p17) p32) (or (not p76) p28 p68) (or p25 (not p84) (not p55)) (or (not p18) p94 (not p45)) (or p22 (not p86) p85) (or (not p45) (not p62) p23) (or p30 (not p59) p17) (or (not p55) (not p23) (not p19)) (or p39 p26 (not p90)) (or p75 (not p21) (not p38)) (or (not p2) p17 p19) (or (not p26) p43 p63) (or (not p38) p15 (not p88)) (or (not p86) (not p4) (not p43)) (or (not p42) p5 p62) (or p71 (not p10) (not p93)) (or p55 p90 p75) (or (not p52) p59 (not p28)) (or (not p59) p79 p26) (or (not p16) (not p33) p52) (or p15 p81 p58) (or p98 (not p41) p43) (or (not p2) p64 p25) (or p23 p61 p33) (or p50 (not p72) (not p98)) (or p27 p84 (not p82)) (or (not p64) p70 p18) (or p90 p19 p48) (or p57 (not p53) (not p32)) (or (not p41) p68 (not p37)) (or (not p92) p52 p91) (or p57 p67 p23) (or (not p91) p83 p61) (or (not p82) (not p10) p13) (or p72 p67 p95) (or (not p93) (not p12) (not p57)) (or p64 p9 (not p12)) (or (not p67) p14 (not p81)) (or (not p95) (not p89) p42) (or (not p16) (not p5) (not p51)) (or p62 (not p87) (not p91)) (or p13 (not p28) p99) (or p29 (not p18) p43) (or (not p92) p96 p55) (or (not p65) (not p66) p6) (or p29 p33 p78) (or p46 p64 p12) (or (not p50) (not p72) (not p40)) (or (not p71) p82 p98) (or p66 (not p58) p39) (or p45 (not p26) (not p37)) (or (not p67) p48 p82) (or p8 p79 (not p47)) (or (not p3) p34 (not p87)) (or p44 (not p66) p75) (or (not p70) (not p75) (not p83)) (or p72 p19 (not p35)) (or p5 (not p9) p36) (or p68 (not p32) p29) (or p53 p18 p84) (or p49 (not p46) (not p35)) (or p36 (not p88) (not p31)) (or (not p40) (not p26) (not p12)) (or (not p6) p30 p70) (or p21 (not p72) p92) (or p26 (not p64) p2) (or (not p11) p28 p56) (or (not p76) (not p43) (not p81)) (or (not p83) p93 (not p73)) (or p97 (not p8) (not p22)) (or p8 p30 (not p87)) (or (not p2) p10 p98) (or (not p54) (not p54) (not p92)) (or (not p83) (not p15) (not p1)) (or (not p2) (not p26) p38) (or (not p28) p48 p9) (or (not p67) (not p37) (not p54)) (or p79 p19 (not p54)) (or p44 (not p93) (not p72)) (or p4 (not p83) p71) (or p70 p70 (not p88)) (or p68 p23 p93) (or (not p52) p74 p14) (or (not p25) p14 p45) (or p99 (not p86) (not p66)) (or p65 (not p68) p7) (or (not p51) p60 (not p63)) (or p88 p60 (not p75)) (or (not p40) (not p40) (not p32)) (or (not p67) (not p48) (not p75)) (or (not p2) p85 (not p72)) (or (not p78) (not p18) (not p51)) (or (not p76) p55 (not p61)) (or (not p48) p27 (not p0)) (or p72 (not p32) (not p35)) (or p54 p32 p79) (or p16 p47 (not p32)) (or (not p33) p52 (not p8)) (or p31 (not p41) (not p41)) (or p23 (not p54) (not p42)) (or (not p86) (not p28) (not p62)) (or (not p40) (not p84) (not p13)) (or (not p85) (not p97) p96) (or p95 (not p4) p90) (or (not p26) (not p58) p6) (or (not p83) p13 (not p14)) (or p39 (not p4) p33) (or (not p21) (not p71) p4) (or (not p25) (not p62) p69) (or p45 p66 (not p68)) (or p77 p87 p8) (or (not p20) p26 p72) (or (not p60) (not p19) (not p73)) (or p62 p15 (not p18)) (or p2 (not p23) p55) (or p5 (not p38) (not p33)) (or (not p82) (not p16) (not p17)) (or (not p26) (not p1) p88) (or (not p84) p3 (not p0)) (or (not p61) p78 (not p93)) (or (not p87) p90 p31) (or (not p1) (not p41) (not p45)) (or p49 p11 (not p13)) (or (not p69) (not p16) p78) (or p88 (not p78) p9) (or (not p94) p46 (not p85)) (or p24 (not p86) (not p54)) (or p36 (not p80) p89) (or p37 p73 p31) (or (not p98) (not p23) (not p19)) (or p42 (not p89) p71) (or p51 p6 p67) (or p78 p17 p77) (or p54 (not p82) p90) (or p17 p75 (not p33)) (or p65 p12 p6) (or p30 (not p0) p33) (or p49 p79 p83) (or (not p51) (not p81) (not p39)) (or p0 (not p62) (not p29)) (or p50 (not p96) (not p96)) (or (not p49) (not p39) (not p51)) (or (not p37) p39 p22) (or p24 (not p11) p97) (or p66 p12 (not p11)) (or p61 p14 p18) (or p42 (not p21) p93) (or p67 p40 p57) (or (not p27) p70 (not p43)) (or p33 (not p43) (not p93)) (or (not p83) (not p39) (not p48)) (or (not p42) (not p52) (not p9)) (or (not p71) (not p79) p85) (or (not p89) (not p35) p65) (or (not p5) p41 (not p84)) (or (not p36) p39 p48) (or p86 (not p77) (not p3)) (or (not p96) p99 (not p1)) (or (not p73) (not p19) (not p43)) (or p85 (not p12) p47) (or (not p91) p33 (not p3)) (or (not p89) (not p8) (not p95)) (or p14 p73 p77) (or p26 (not p34) (not p46)) (or (not p87) (not p52) p53) (or p64 (not p86) p38) (or (not p97) (not p4) (not p99)) (or (not p52) (not p42) p58) (or (not p30) (not p47) p17) (or p0 (not p57) (not p96)) (or (not p10) (not p15) p85) (or p94 p28 p44) (or (not p72) (not p70) (not p64)) (or (not p96) p44 (not p51)) (or p42 (not p29) (not p60)) (or p41 (not p80) p57) (or p39 (not p42) (not p52)) (or (not p64) p91 (not p81)) (or (not p80) (not p33) (not p70)) (or (not p59) p81 p22) (or p94 p88 p24) (or (not p5) (not p57) (not p94)) (or p43 (not p80) (not p93)) (or (not p83) p93 p48) (or p34 p75 (not p82)) (or p54 p43 (not p34)) (or p26 p47 (not p40)) (or p68 (not p43) p54) (or p6 p71 p64) (or (not p54) p40 p53) (or p39 p36 (not p48)) (or (not p89) p26 (not p76)) (or p50 p92 (not p36)) (or (not p75) p57 p91) (or (not p53) (not p24) (not p4)) (or p98 (not p39) (not p36)) (or p4 (not p12) p7) (or p70 p49 (not p32)))
)
(check-sat)
(get-model)
